p cnf 12 50 
-7 -1 -9 0
-11 -4 -10 0
2 -9 12 0
10 -4 -11 0
3 7 -6 0
-7 -6 -9 0
-1 7 -9 0
-9 -10 1 0
-1 10 -3 0
12 -10 -5 0
-5 -9 -8 0
-3 4 2 0
-8 -12 9 0
7 -3 6 0
1 3 9 0
-1 -3 4 0
3 2 10 0
-4 -10 -3 0
-6 -5 -7 0
11 3 5 0
6 -12 8 0
6 7 -2 0
-6 9 -10 0
10 5 3 0
-5 -9 -12 0
11 7 2 0
-5 3 -6 0
-9 -1 6 0
-9 -1 -10 0
2 -11 -7 0
-1 -10 -6 0
9 5 7 0
-2 -4 -8 0
-10 11 -5 0
-12 -9 11 0
-3 -12 4 0
-7 8 -1 0
-2 10 4 0
-7 -11 -2 0
9 -3 1 0
7 -4 -8 0
-7 -2 8 0
2 5 11 0
6 -9 -4 0
9 10 -5 0
11 2 3 0
4 -10 -12 0
9 -2 -7 0
-12 -6 4 0
-4 -2 -11 0
